\ SCIP STATISTICS
\   Problem name     : CapacitatedFacilityLocation-20-10
\   Variables        : 210 (210 binary, 0 integer, 0 implicit integer, 0 continuous)
\   Constraints      : 231
Minimize
 Obj: +596.51648071345 x0 +965.146225063565 x1 +607.585910955476 x2 +921.260006729913 x3 +1334.37703824508 x4
      +1359.34205930692 x5 +981.153791493574 x6 +941.039502505391 x7 +797.567128139914 x8 +973.576389513023 x9
      +65.0835039584282 x10 +157.409461176483 x11 +52.4722321557855 x12 +167.146720873821 x13 +161.801913650821 x14
      +114.631608677437 x15 +139.11375768987 x16 +5.93323759368425 x17 +17.5030670483942 x18 +97.9230617729466 x19
      +73.2366835670261 x20 +127.258078149851 x21 +15.4348528280011 x22 +133.756802558921 x23 +129.389594168048 x24
      +86.8687595149499 x25 +117.359232201428 x26 +29.9926417887218 x27 +22.6038290740064 x28 +34.8778512701239 x29
      +24.5919451927421 x30 +22.2850765520519 x31 +30.4511070675442 x32 +24.7653100107925 x33 +22.2601489750505 x34
      +3.95384513233531 x35 +21.9172764282119 x36 +28.0033180850529 x37 +28.2822959806962 x38 +49.268833056318 x39
      +109.166128758304 x40 +205.385366230521 x41 +193.200872542988 x42 +212.241261290583 x43 +213.449740888184 x44
      +222.631758394979 x45 +177.636721542738 x46 +141.714723364519 x47 +155.282068848466 x48 +219.453196276353 x49
      +3.00556536352292 x50 +30.7568620539577 x51 +36.9235786073476 x52 +33.3810320655938 x53 +32.7253636063762 x54
      +32.4976374566021 x55 +23.4851821579913 x56 +23.5012279474765 x57 +27.0801817553742 x58 +53.5923979286955 x59
      +133.428389365066 x60 +157.045552437306 x61 +66.7916478382941 x62 +164.568810713041 x63 +156.495711431732 x64
      +80.7948351275172 x65 +155.008278573564 x66 +98.4627553843444 x67 +89.5093126082294 x68 +107.922073974703 x69
      +39.8255423112119 x70 +96.577841381388 x71 +69.429124672038 x72 +101.013431360906 x73 +100.1989641563 x74
      +93.1507116184245 x75 +83.2294296410547 x76 +44.4873340679819 x77 +50.9020371374015 x78 +82.6151740049247 x79
      +73.4218338206013 x80 +106.248992882494 x81 +31.331421232972 x82 +110.346038576773 x83 +107.321098951926 x84
      +76.7926070716398 x85 +100.689359917899 x86 +46.0866461242024 x87 +41.4948072938083 x88 +8.04354597399902 x89
      +68.9962356182861 x90 +65.119735941655 x91 +54.4398399952872 x92 +68.7036380788645 x93 +63.9765969840951 x94
      +23.4650618356857 x95 +67.1623208078015 x96 +62.4034414069855 x97 +59.8040347268291 x98 +84.3463420884702 x99
      +20.2360801595255 x100 +35.9210292269747 x101 +44.2391111634523 x102 +37.100621559041 x103 +37.7347399842801 x104
      +43.9065000676207 x105 +29.9753499720485 x106 +32.6381177961887 x107 +35.7783805731987 x108 +53.3307002594465 x109
      +117.014015686257 x110 +141.453811074891 x111 +54.5148105747149 x112 +147.297448282346 x113 +141.243188543427 x114
      +83.9470254560897 x115 +138.983703366806 x116 +84.0155804182149 x117 +76.0529183792208 x118 +72.6117125331862 x119
      +135.94113902515 x120 +99.8859624648088 x121 +132.479016004581 x122 +104.185002003956 x123 +95.9460916828442 x124
      +47.7191967034716 x125 +110.317503918596 x126 +139.029400737113 x127 +136.692689491619 x128 +188.121171571203 x129
      +16.0382533731475 x130 +36.5416813440746 x131 +49.0379334158369 x132 +38.3948233095503 x133 +38.8332789971834 x134
      +45.5405170633173 x135 +28.7536844658675 x136 +34.4895429474128 x137 +38.4439314585028 x138 +63.1910232594306 x139
      +221.626215131929 x140 +282.888989136848 x141 +101.570467486614 x142 +293.28387795289 x143 +283.657956489696 x144
      +190.037004085458 x145 +274.709840588714 x146 +154.3376660366 x147 +139.990924023533 x148 +90.8099467655735 x149
      +13.1964926351079 x150 +78.9239556733966 x151 +77.4376820989568 x152 +84.2913229065969 x153 +83.1865119491548 x154
      +80.5307627610149 x155 +63.23309312798 x156 +46.6654771460286 x157 +55.0053061734537 x158 +108.042707475139 x159
      +68.9336562942066 x160 +57.1337337177885 x161 +107.490574057513 x162 +65.6686411701024 x163 +58.1744024707485 x164
      +30.1192743142916 x165 +53.4173546878302 x166 +92.0197780012925 x167 +95.1764203852084 x168 +168.073394521084 x169
      +50.1951357319801 x170 +41.9012757967222 x171 +42.6789317037372 x172 +42.994961458653 x173 +40.726555326589 x174
      +25.6149559479611 x175 +44.8762298626696 x176 +47.719969847298 x177 +46.2877602983959 x178 +56.1232485115923 x179
      +174.761889164518 x180 +151.085918866262 x181 +143.699269078166 x182 +156.615995856436 x183 +147.237131039213 x184
      +78.0977511528848 x185 +160.156659275629 x186 +163.068688200636 x187 +157.373126220709 x188 +199.348267804013 x189
      +17.1473342723512 x190 +30.0972300848374 x191 +60.2701002877304 x192 +33.0975748262068 x193 +33.0241591225836 x194
      +43.3677389878183 x195 +19.7727900149059 x196 +43.7665117475783 x197 +48.1540091377695 x198 +84.0301397161515 x199
      +67.2783036828886 x200 +123.136004414276 x201 +88.278662681853 x202 +127.340242321711 x203 +126.879464220077 x204
      +120.164089261545 x205 +109.540123107308 x206 +66.8096970483647 x207 +72.0092272875395 x208 +90.8541158316665 x209
Subject to
 c0: +1 x10 +1 x11 +1 x12 +1 x13 +1 x14 +1 x15 +1 x16 +1 x17 +1 x18 +1 x19 >= +1
 c1: +1 x20 +1 x21 +1 x22 +1 x23 +1 x24 +1 x25 +1 x26 +1 x27 +1 x28 +1 x29 >= +1
 c2: +1 x30 +1 x31 +1 x32 +1 x33 +1 x34 +1 x35 +1 x36 +1 x37 +1 x38 +1 x39 >= +1
 c3: +1 x40 +1 x41 +1 x42 +1 x43 +1 x44 +1 x45 +1 x46 +1 x47 +1 x48 +1 x49 >= +1
 c4: +1 x50 +1 x51 +1 x52 +1 x53 +1 x54 +1 x55 +1 x56 +1 x57 +1 x58 +1 x59 >= +1
 c5: +1 x60 +1 x61 +1 x62 +1 x63 +1 x64 +1 x65 +1 x66 +1 x67 +1 x68 +1 x69 >= +1
 c6: +1 x70 +1 x71 +1 x72 +1 x73 +1 x74 +1 x75 +1 x76 +1 x77 +1 x78 +1 x79 >= +1
 c7: +1 x80 +1 x81 +1 x82 +1 x83 +1 x84 +1 x85 +1 x86 +1 x87 +1 x88 +1 x89 >= +1
 c8: +1 x90 +1 x91 +1 x92 +1 x93 +1 x94 +1 x95 +1 x96 +1 x97 +1 x98 +1 x99 >= +1
 c9: +1 x100 +1 x101 +1 x102 +1 x103 +1 x104 +1 x105 +1 x106 +1 x107 +1 x108 +1 x109 >= +1
 c10: +1 x110 +1 x111 +1 x112 +1 x113 +1 x114 +1 x115 +1 x116 +1 x117 +1 x118 +1 x119 >= +1
 c11: +1 x120 +1 x121 +1 x122 +1 x123 +1 x124 +1 x125 +1 x126 +1 x127 +1 x128 +1 x129 >= +1
 c12: +1 x130 +1 x131 +1 x132 +1 x133 +1 x134 +1 x135 +1 x136 +1 x137 +1 x138 +1 x139 >= +1
 c13: +1 x140 +1 x141 +1 x142 +1 x143 +1 x144 +1 x145 +1 x146 +1 x147 +1 x148 +1 x149 >= +1
 c14: +1 x150 +1 x151 +1 x152 +1 x153 +1 x154 +1 x155 +1 x156 +1 x157 +1 x158 +1 x159 >= +1
 c15: +1 x160 +1 x161 +1 x162 +1 x163 +1 x164 +1 x165 +1 x166 +1 x167 +1 x168 +1 x169 >= +1
 c16: +1 x170 +1 x171 +1 x172 +1 x173 +1 x174 +1 x175 +1 x176 +1 x177 +1 x178 +1 x179 >= +1
 c17: +1 x180 +1 x181 +1 x182 +1 x183 +1 x184 +1 x185 +1 x186 +1 x187 +1 x188 +1 x189 >= +1
 c18: +1 x190 +1 x191 +1 x192 +1 x193 +1 x194 +1 x195 +1 x196 +1 x197 +1 x198 +1 x199 >= +1
 c19: +1 x200 +1 x201 +1 x202 +1 x203 +1 x204 +1 x205 +1 x206 +1 x207 +1 x208 +1 x209 >= +1
 c20: +29 x10 +19 x20 +8 x30 +32 x40 +9 x50 +25 x60 +16 x70 +12 x80 +14 x90 +7 x100 +19 x110 +25 x120
  +9 x130 +32 x140 +19 x150 +26 x160 +7 x170 +28 x180 +12 x190 +16 x200 -67 x0 <= +0
 c21: +29 x11 +19 x21 +8 x31 +32 x41 +9 x51 +25 x61 +16 x71 +12 x81 +14 x91 +7 x101 +19 x111 +25 x121
  +9 x131 +32 x141 +19 x151 +26 x161 +7 x171 +28 x181 +12 x191 +16 x201 -179 x1 <= +0
 c22: +29 x12 +19 x22 +8 x32 +32 x42 +9 x52 +25 x62 +16 x72 +12 x82 +14 x92 +7 x102 +19 x112 +25 x122
  +9 x132 +32 x142 +19 x152 +26 x162 +7 x172 +28 x182 +12 x192 +16 x202 -70 x2 <= +0
 c23: +29 x13 +19 x23 +8 x33 +32 x43 +9 x53 +25 x63 +16 x73 +12 x83 +14 x93 +7 x103 +19 x113 +25 x123
  +9 x133 +32 x143 +19 x153 +26 x163 +7 x173 +28 x183 +12 x193 +16 x203 -185 x3 <= +0
 c24: +29 x14 +19 x24 +8 x34 +32 x44 +9 x54 +25 x64 +16 x74 +12 x84 +14 x94 +7 x104 +19 x114 +25 x124
  +9 x134 +32 x144 +19 x154 +26 x164 +7 x174 +28 x184 +12 x194 +16 x204 -357 x4 <= +0
 c25: +29 x15 +19 x25 +8 x35 +32 x45 +9 x55 +25 x65 +16 x75 +12 x85 +14 x95 +7 x105 +19 x115 +25 x125
  +9 x135 +32 x145 +19 x155 +26 x165 +7 x175 +28 x185 +12 x195 +16 x205 -311 x5 <= +0
 c26: +29 x16 +19 x26 +8 x36 +32 x46 +9 x56 +25 x66 +16 x76 +12 x86 +14 x96 +7 x106 +19 x116 +25 x126
  +9 x136 +32 x146 +19 x156 +26 x166 +7 x176 +28 x186 +12 x196 +16 x206 -192 x6 <= +0
 c27: +29 x17 +19 x27 +8 x37 +32 x47 +9 x57 +25 x67 +16 x77 +12 x87 +14 x97 +7 x107 +19 x117 +25 x127
  +9 x137 +32 x147 +19 x157 +26 x167 +7 x177 +28 x187 +12 x197 +16 x207 -172 x7 <= +0
 c28: +29 x18 +19 x28 +8 x38 +32 x48 +9 x58 +25 x68 +16 x78 +12 x88 +14 x98 +7 x108 +19 x118 +25 x128
  +9 x138 +32 x148 +19 x158 +26 x168 +7 x178 +28 x188 +12 x198 +16 x208 -118 x8 <= +0
 c29: +29 x19 +19 x29 +8 x39 +32 x49 +9 x59 +25 x69 +16 x79 +12 x89 +14 x99 +7 x109 +19 x119 +25 x129
  +9 x139 +32 x149 +19 x159 +26 x169 +7 x179 +28 x189 +12 x199 +16 x209 -169 x9 <= +0
 c30: +67 x0 +179 x1 +70 x2 +185 x3 +357 x4 +311 x5 +192 x6 +172 x7 +118 x8 +169 x9 >= +364
 c31: +1 x10 -1 x0 <= +0
 c32: +1 x11 -1 x1 <= +0
 c33: +1 x12 -1 x2 <= +0
 c34: +1 x13 -1 x3 <= +0
 c35: +1 x14 -1 x4 <= +0
 c36: +1 x15 -1 x5 <= +0
 c37: +1 x16 -1 x6 <= +0
 c38: +1 x17 -1 x7 <= +0
 c39: +1 x18 -1 x8 <= +0
 c40: +1 x19 -1 x9 <= +0
 c41: +1 x20 -1 x0 <= +0
 c42: +1 x21 -1 x1 <= +0
 c43: +1 x22 -1 x2 <= +0
 c44: +1 x23 -1 x3 <= +0
 c45: +1 x24 -1 x4 <= +0
 c46: +1 x25 -1 x5 <= +0
 c47: +1 x26 -1 x6 <= +0
 c48: +1 x27 -1 x7 <= +0
 c49: +1 x28 -1 x8 <= +0
 c50: +1 x29 -1 x9 <= +0
 c51: +1 x30 -1 x0 <= +0
 c52: +1 x31 -1 x1 <= +0
 c53: +1 x32 -1 x2 <= +0
 c54: +1 x33 -1 x3 <= +0
 c55: +1 x34 -1 x4 <= +0
 c56: +1 x35 -1 x5 <= +0
 c57: +1 x36 -1 x6 <= +0
 c58: +1 x37 -1 x7 <= +0
 c59: +1 x38 -1 x8 <= +0
 c60: +1 x39 -1 x9 <= +0
 c61: +1 x40 -1 x0 <= +0
 c62: +1 x41 -1 x1 <= +0
 c63: +1 x42 -1 x2 <= +0
 c64: +1 x43 -1 x3 <= +0
 c65: +1 x44 -1 x4 <= +0
 c66: +1 x45 -1 x5 <= +0
 c67: +1 x46 -1 x6 <= +0
 c68: +1 x47 -1 x7 <= +0
 c69: +1 x48 -1 x8 <= +0
 c70: +1 x49 -1 x9 <= +0
 c71: +1 x50 -1 x0 <= +0
 c72: +1 x51 -1 x1 <= +0
 c73: +1 x52 -1 x2 <= +0
 c74: +1 x53 -1 x3 <= +0
 c75: +1 x54 -1 x4 <= +0
 c76: +1 x55 -1 x5 <= +0
 c77: +1 x56 -1 x6 <= +0
 c78: +1 x57 -1 x7 <= +0
 c79: +1 x58 -1 x8 <= +0
 c80: +1 x59 -1 x9 <= +0
 c81: +1 x60 -1 x0 <= +0
 c82: +1 x61 -1 x1 <= +0
 c83: +1 x62 -1 x2 <= +0
 c84: +1 x63 -1 x3 <= +0
 c85: +1 x64 -1 x4 <= +0
 c86: +1 x65 -1 x5 <= +0
 c87: +1 x66 -1 x6 <= +0
 c88: +1 x67 -1 x7 <= +0
 c89: +1 x68 -1 x8 <= +0
 c90: +1 x69 -1 x9 <= +0
 c91: +1 x70 -1 x0 <= +0
 c92: +1 x71 -1 x1 <= +0
 c93: +1 x72 -1 x2 <= +0
 c94: +1 x73 -1 x3 <= +0
 c95: +1 x74 -1 x4 <= +0
 c96: +1 x75 -1 x5 <= +0
 c97: +1 x76 -1 x6 <= +0
 c98: +1 x77 -1 x7 <= +0
 c99: +1 x78 -1 x8 <= +0
 c100: +1 x79 -1 x9 <= +0
 c101: +1 x80 -1 x0 <= +0
 c102: +1 x81 -1 x1 <= +0
 c103: +1 x82 -1 x2 <= +0
 c104: +1 x83 -1 x3 <= +0
 c105: +1 x84 -1 x4 <= +0
 c106: +1 x85 -1 x5 <= +0
 c107: +1 x86 -1 x6 <= +0
 c108: +1 x87 -1 x7 <= +0
 c109: +1 x88 -1 x8 <= +0
 c110: +1 x89 -1 x9 <= +0
 c111: +1 x90 -1 x0 <= +0
 c112: +1 x91 -1 x1 <= +0
 c113: +1 x92 -1 x2 <= +0
 c114: +1 x93 -1 x3 <= +0
 c115: +1 x94 -1 x4 <= +0
 c116: +1 x95 -1 x5 <= +0
 c117: +1 x96 -1 x6 <= +0
 c118: +1 x97 -1 x7 <= +0
 c119: +1 x98 -1 x8 <= +0
 c120: +1 x99 -1 x9 <= +0
 c121: +1 x100 -1 x0 <= +0
 c122: +1 x101 -1 x1 <= +0
 c123: +1 x102 -1 x2 <= +0
 c124: +1 x103 -1 x3 <= +0
 c125: +1 x104 -1 x4 <= +0
 c126: +1 x105 -1 x5 <= +0
 c127: +1 x106 -1 x6 <= +0
 c128: +1 x107 -1 x7 <= +0
 c129: +1 x108 -1 x8 <= +0
 c130: +1 x109 -1 x9 <= +0
 c131: +1 x110 -1 x0 <= +0
 c132: +1 x111 -1 x1 <= +0
 c133: +1 x112 -1 x2 <= +0
 c134: +1 x113 -1 x3 <= +0
 c135: +1 x114 -1 x4 <= +0
 c136: +1 x115 -1 x5 <= +0
 c137: +1 x116 -1 x6 <= +0
 c138: +1 x117 -1 x7 <= +0
 c139: +1 x118 -1 x8 <= +0
 c140: +1 x119 -1 x9 <= +0
 c141: +1 x120 -1 x0 <= +0
 c142: +1 x121 -1 x1 <= +0
 c143: +1 x122 -1 x2 <= +0
 c144: +1 x123 -1 x3 <= +0
 c145: +1 x124 -1 x4 <= +0
 c146: +1 x125 -1 x5 <= +0
 c147: +1 x126 -1 x6 <= +0
 c148: +1 x127 -1 x7 <= +0
 c149: +1 x128 -1 x8 <= +0
 c150: +1 x129 -1 x9 <= +0
 c151: +1 x130 -1 x0 <= +0
 c152: +1 x131 -1 x1 <= +0
 c153: +1 x132 -1 x2 <= +0
 c154: +1 x133 -1 x3 <= +0
 c155: +1 x134 -1 x4 <= +0
 c156: +1 x135 -1 x5 <= +0
 c157: +1 x136 -1 x6 <= +0
 c158: +1 x137 -1 x7 <= +0
 c159: +1 x138 -1 x8 <= +0
 c160: +1 x139 -1 x9 <= +0
 c161: +1 x140 -1 x0 <= +0
 c162: +1 x141 -1 x1 <= +0
 c163: +1 x142 -1 x2 <= +0
 c164: +1 x143 -1 x3 <= +0
 c165: +1 x144 -1 x4 <= +0
 c166: +1 x145 -1 x5 <= +0
 c167: +1 x146 -1 x6 <= +0
 c168: +1 x147 -1 x7 <= +0
 c169: +1 x148 -1 x8 <= +0
 c170: +1 x149 -1 x9 <= +0
 c171: +1 x150 -1 x0 <= +0
 c172: +1 x151 -1 x1 <= +0
 c173: +1 x152 -1 x2 <= +0
 c174: +1 x153 -1 x3 <= +0
 c175: +1 x154 -1 x4 <= +0
 c176: +1 x155 -1 x5 <= +0
 c177: +1 x156 -1 x6 <= +0
 c178: +1 x157 -1 x7 <= +0
 c179: +1 x158 -1 x8 <= +0
 c180: +1 x159 -1 x9 <= +0
 c181: +1 x160 -1 x0 <= +0
 c182: +1 x161 -1 x1 <= +0
 c183: +1 x162 -1 x2 <= +0
 c184: +1 x163 -1 x3 <= +0
 c185: +1 x164 -1 x4 <= +0
 c186: +1 x165 -1 x5 <= +0
 c187: +1 x166 -1 x6 <= +0
 c188: +1 x167 -1 x7 <= +0
 c189: +1 x168 -1 x8 <= +0
 c190: +1 x169 -1 x9 <= +0
 c191: +1 x170 -1 x0 <= +0
 c192: +1 x171 -1 x1 <= +0
 c193: +1 x172 -1 x2 <= +0
 c194: +1 x173 -1 x3 <= +0
 c195: +1 x174 -1 x4 <= +0
 c196: +1 x175 -1 x5 <= +0
 c197: +1 x176 -1 x6 <= +0
 c198: +1 x177 -1 x7 <= +0
 c199: +1 x178 -1 x8 <= +0
 c200: +1 x179 -1 x9 <= +0
 c201: +1 x180 -1 x0 <= +0
 c202: +1 x181 -1 x1 <= +0
 c203: +1 x182 -1 x2 <= +0
 c204: +1 x183 -1 x3 <= +0
 c205: +1 x184 -1 x4 <= +0
 c206: +1 x185 -1 x5 <= +0
 c207: +1 x186 -1 x6 <= +0
 c208: +1 x187 -1 x7 <= +0
 c209: +1 x188 -1 x8 <= +0
 c210: +1 x189 -1 x9 <= +0
 c211: +1 x190 -1 x0 <= +0
 c212: +1 x191 -1 x1 <= +0
 c213: +1 x192 -1 x2 <= +0
 c214: +1 x193 -1 x3 <= +0
 c215: +1 x194 -1 x4 <= +0
 c216: +1 x195 -1 x5 <= +0
 c217: +1 x196 -1 x6 <= +0
 c218: +1 x197 -1 x7 <= +0
 c219: +1 x198 -1 x8 <= +0
 c220: +1 x199 -1 x9 <= +0
 c221: +1 x200 -1 x0 <= +0
 c222: +1 x201 -1 x1 <= +0
 c223: +1 x202 -1 x2 <= +0
 c224: +1 x203 -1 x3 <= +0
 c225: +1 x204 -1 x4 <= +0
 c226: +1 x205 -1 x5 <= +0
 c227: +1 x206 -1 x6 <= +0
 c228: +1 x207 -1 x7 <= +0
 c229: +1 x208 -1 x8 <= +0
 c230: +1 x209 -1 x9 <= +0
Bounds
 0 <= x0 <= 1
 0 <= x1 <= 1
 0 <= x2 <= 1
 0 <= x3 <= 1
 0 <= x4 <= 1
 0 <= x5 <= 1
 0 <= x6 <= 1
 0 <= x7 <= 1
 0 <= x8 <= 1
 0 <= x9 <= 1
 0 <= x10 <= 1
 0 <= x11 <= 1
 0 <= x12 <= 1
 0 <= x13 <= 1
 0 <= x14 <= 1
 0 <= x15 <= 1
 0 <= x16 <= 1
 0 <= x17 <= 1
 0 <= x18 <= 1
 0 <= x19 <= 1
 0 <= x20 <= 1
 0 <= x21 <= 1
 0 <= x22 <= 1
 0 <= x23 <= 1
 0 <= x24 <= 1
 0 <= x25 <= 1
 0 <= x26 <= 1
 0 <= x27 <= 1
 0 <= x28 <= 1
 0 <= x29 <= 1
 0 <= x30 <= 1
 0 <= x31 <= 1
 0 <= x32 <= 1
 0 <= x33 <= 1
 0 <= x34 <= 1
 0 <= x35 <= 1
 0 <= x36 <= 1
 0 <= x37 <= 1
 0 <= x38 <= 1
 0 <= x39 <= 1
 0 <= x40 <= 1
 0 <= x41 <= 1
 0 <= x42 <= 1
 0 <= x43 <= 1
 0 <= x44 <= 1
 0 <= x45 <= 1
 0 <= x46 <= 1
 0 <= x47 <= 1
 0 <= x48 <= 1
 0 <= x49 <= 1
 0 <= x50 <= 1
 0 <= x51 <= 1
 0 <= x52 <= 1
 0 <= x53 <= 1
 0 <= x54 <= 1
 0 <= x55 <= 1
 0 <= x56 <= 1
 0 <= x57 <= 1
 0 <= x58 <= 1
 0 <= x59 <= 1
 0 <= x60 <= 1
 0 <= x61 <= 1
 0 <= x62 <= 1
 0 <= x63 <= 1
 0 <= x64 <= 1
 0 <= x65 <= 1
 0 <= x66 <= 1
 0 <= x67 <= 1
 0 <= x68 <= 1
 0 <= x69 <= 1
 0 <= x70 <= 1
 0 <= x71 <= 1
 0 <= x72 <= 1
 0 <= x73 <= 1
 0 <= x74 <= 1
 0 <= x75 <= 1
 0 <= x76 <= 1
 0 <= x77 <= 1
 0 <= x78 <= 1
 0 <= x79 <= 1
 0 <= x80 <= 1
 0 <= x81 <= 1
 0 <= x82 <= 1
 0 <= x83 <= 1
 0 <= x84 <= 1
 0 <= x85 <= 1
 0 <= x86 <= 1
 0 <= x87 <= 1
 0 <= x88 <= 1
 0 <= x89 <= 1
 0 <= x90 <= 1
 0 <= x91 <= 1
 0 <= x92 <= 1
 0 <= x93 <= 1
 0 <= x94 <= 1
 0 <= x95 <= 1
 0 <= x96 <= 1
 0 <= x97 <= 1
 0 <= x98 <= 1
 0 <= x99 <= 1
 0 <= x100 <= 1
 0 <= x101 <= 1
 0 <= x102 <= 1
 0 <= x103 <= 1
 0 <= x104 <= 1
 0 <= x105 <= 1
 0 <= x106 <= 1
 0 <= x107 <= 1
 0 <= x108 <= 1
 0 <= x109 <= 1
 0 <= x110 <= 1
 0 <= x111 <= 1
 0 <= x112 <= 1
 0 <= x113 <= 1
 0 <= x114 <= 1
 0 <= x115 <= 1
 0 <= x116 <= 1
 0 <= x117 <= 1
 0 <= x118 <= 1
 0 <= x119 <= 1
 0 <= x120 <= 1
 0 <= x121 <= 1
 0 <= x122 <= 1
 0 <= x123 <= 1
 0 <= x124 <= 1
 0 <= x125 <= 1
 0 <= x126 <= 1
 0 <= x127 <= 1
 0 <= x128 <= 1
 0 <= x129 <= 1
 0 <= x130 <= 1
 0 <= x131 <= 1
 0 <= x132 <= 1
 0 <= x133 <= 1
 0 <= x134 <= 1
 0 <= x135 <= 1
 0 <= x136 <= 1
 0 <= x137 <= 1
 0 <= x138 <= 1
 0 <= x139 <= 1
 0 <= x140 <= 1
 0 <= x141 <= 1
 0 <= x142 <= 1
 0 <= x143 <= 1
 0 <= x144 <= 1
 0 <= x145 <= 1
 0 <= x146 <= 1
 0 <= x147 <= 1
 0 <= x148 <= 1
 0 <= x149 <= 1
 0 <= x150 <= 1
 0 <= x151 <= 1
 0 <= x152 <= 1
 0 <= x153 <= 1
 0 <= x154 <= 1
 0 <= x155 <= 1
 0 <= x156 <= 1
 0 <= x157 <= 1
 0 <= x158 <= 1
 0 <= x159 <= 1
 0 <= x160 <= 1
 0 <= x161 <= 1
 0 <= x162 <= 1
 0 <= x163 <= 1
 0 <= x164 <= 1
 0 <= x165 <= 1
 0 <= x166 <= 1
 0 <= x167 <= 1
 0 <= x168 <= 1
 0 <= x169 <= 1
 0 <= x170 <= 1
 0 <= x171 <= 1
 0 <= x172 <= 1
 0 <= x173 <= 1
 0 <= x174 <= 1
 0 <= x175 <= 1
 0 <= x176 <= 1
 0 <= x177 <= 1
 0 <= x178 <= 1
 0 <= x179 <= 1
 0 <= x180 <= 1
 0 <= x181 <= 1
 0 <= x182 <= 1
 0 <= x183 <= 1
 0 <= x184 <= 1
 0 <= x185 <= 1
 0 <= x186 <= 1
 0 <= x187 <= 1
 0 <= x188 <= 1
 0 <= x189 <= 1
 0 <= x190 <= 1
 0 <= x191 <= 1
 0 <= x192 <= 1
 0 <= x193 <= 1
 0 <= x194 <= 1
 0 <= x195 <= 1
 0 <= x196 <= 1
 0 <= x197 <= 1
 0 <= x198 <= 1
 0 <= x199 <= 1
 0 <= x200 <= 1
 0 <= x201 <= 1
 0 <= x202 <= 1
 0 <= x203 <= 1
 0 <= x204 <= 1
 0 <= x205 <= 1
 0 <= x206 <= 1
 0 <= x207 <= 1
 0 <= x208 <= 1
 0 <= x209 <= 1
Binaries
 x0 x1 x2 x3 x4 x5 x6 x7 x8 x9 x10 x11 x12 x13 x14 x15 x16 x17 x18 x19 x20 x21 x22 x23 x24 x25 x26 x27
 x28 x29 x30 x31 x32 x33 x34 x35 x36 x37 x38 x39 x40 x41 x42 x43 x44 x45 x46 x47 x48 x49 x50 x51 x52 x53
 x54 x55 x56 x57 x58 x59 x60 x61 x62 x63 x64 x65 x66 x67 x68 x69 x70 x71 x72 x73 x74 x75 x76 x77 x78 x79
 x80 x81 x82 x83 x84 x85 x86 x87 x88 x89 x90 x91 x92 x93 x94 x95 x96 x97 x98 x99 x100 x101 x102 x103 x104
 x105 x106 x107 x108 x109 x110 x111 x112 x113 x114 x115 x116 x117 x118 x119 x120 x121 x122 x123 x124 x125
 x126 x127 x128 x129 x130 x131 x132 x133 x134 x135 x136 x137 x138 x139 x140 x141 x142 x143 x144 x145 x146
 x147 x148 x149 x150 x151 x152 x153 x154 x155 x156 x157 x158 x159 x160 x161 x162 x163 x164 x165 x166 x167
 x168 x169 x170 x171 x172 x173 x174 x175 x176 x177 x178 x179 x180 x181 x182 x183 x184 x185 x186 x187 x188
 x189 x190 x191 x192 x193 x194 x195 x196 x197 x198 x199 x200 x201 x202 x203 x204 x205 x206 x207 x208 x209
End
